NAME : instances/clustered-diverse-tsp/instance-33.tsp
COMMENT : No Comment
TYPE : TSP
DIMENSION: 50
EDGE_WEIGHT_TYPE : EUC_2D
NODE_COORD_SECTION
1 312 1927 
2 737 759 
3 590 915 
4 317 1897 
5 518 865 
6 1436 695 
7 662 591 
8 1418 626 
9 584 723 
10 312 1164 
11 2003 1377 
12 603 892 
13 630 697 
14 612 722 
15 390 1089 
16 533 861 
17 2006 243 
18 561 771 
19 547 924 
20 683 955 
21 1926 314 
22 2045 1381 
23 404 1978 
24 487 686 
25 641 707 
26 573 638 
27 347 783 
28 420 1882 
29 396 1124 
30 611 1075 
31 417 1991 
32 665 1058 
33 339 1909 
34 569 925 
35 554 766 
36 632 829 
37 420 2002 
38 712 619 
39 1991 1414 
40 625 958 
41 1424 674 
42 271 1898 
43 1951 314 
44 1458 615 
45 658 1053 
46 315 2001 
47 665 622 
48 588 893 
49 1426 651 
50 2089 1452 
EOF
